n_boats=80;
n_periods=20;
capacity=[40,42,44,19,9,50,4,15,23,47,29,39,2,39,23,5,24,6,22,32,47,27,18,7,40,19,56,55,34,50,34,52,32,17,19,32,29,52,44,40,41,43,6,9,32,52,45,8,17,10,31,37,55,40,10,30,8,4,44,25,28,56,12,44,49,12,57,3,56,40,31,35,37,12,6,30,57,33,31,28];
crew=[25,19,8,16,4,2,2,8,17,12,10,16,2,25,8,4,6,3,3,15,10,24,11,7,22,12,24,18,34,10,25,1,8,6,10,31,4,52,33,29,29,14,3,8,20,47,21,2,16,3,18,36,19,39,5,10,4,2,21,10,17,33,11,19,23,9,4,2,43,16,19,14,13,11,4,12,50,16,19,3];
